certificates/rado_a30_c24_N223.cnf
c Rad2 upper bound instance: x1 + 30*x2 - x3 = 24, interval [1,223]
p cnf 223 1792
1 7 0
-1 -7 0
1 2 37 0
-1 -2 -37 0
1 3 67 0
-1 -3 -67 0
1 4 97 0
-1 -4 -97 0
1 5 127 0
-1 -5 -127 0
1 6 157 0
-1 -6 -157 0
1 7 187 0
-1 -7 -187 0
1 8 217 0
-1 -8 -217 0
1 2 8 0
-1 -2 -8 0
2 38 0
-2 -38 0
2 3 68 0
-2 -3 -68 0
2 4 98 0
-2 -4 -98 0
2 5 128 0
-2 -5 -128 0
2 6 158 0
-2 -6 -158 0
2 7 188 0
-2 -7 -188 0
2 8 218 0
-2 -8 -218 0
1 3 9 0
-1 -3 -9 0
2 3 39 0
-2 -3 -39 0
3 69 0
-3 -69 0
3 4 99 0
-3 -4 -99 0
3 5 129 0
-3 -5 -129 0
3 6 159 0
-3 -6 -159 0
3 7 189 0
-3 -7 -189 0
3 8 219 0
-3 -8 -219 0
1 4 10 0
-1 -4 -10 0
2 4 40 0
-2 -4 -40 0
3 4 70 0
-3 -4 -70 0
4 100 0
-4 -100 0
4 5 130 0
-4 -5 -130 0
4 6 160 0
-4 -6 -160 0
4 7 190 0
-4 -7 -190 0
4 8 220 0
-4 -8 -220 0
1 5 11 0
-1 -5 -11 0
2 5 41 0
-2 -5 -41 0
3 5 71 0
-3 -5 -71 0
4 5 101 0
-4 -5 -101 0
5 131 0
-5 -131 0
5 6 161 0
-5 -6 -161 0
5 7 191 0
-5 -7 -191 0
5 8 221 0
-5 -8 -221 0
1 6 12 0
-1 -6 -12 0
2 6 42 0
-2 -6 -42 0
3 6 72 0
-3 -6 -72 0
4 6 102 0
-4 -6 -102 0
5 6 132 0
-5 -6 -132 0
6 162 0
-6 -162 0
6 7 192 0
-6 -7 -192 0
6 8 222 0
-6 -8 -222 0
1 7 13 0
-1 -7 -13 0
2 7 43 0
-2 -7 -43 0
3 7 73 0
-3 -7 -73 0
4 7 103 0
-4 -7 -103 0
5 7 133 0
-5 -7 -133 0
6 7 163 0
-6 -7 -163 0
7 193 0
-7 -193 0
7 8 223 0
-7 -8 -223 0
1 8 14 0
-1 -8 -14 0
2 8 44 0
-2 -8 -44 0
3 8 74 0
-3 -8 -74 0
4 8 104 0
-4 -8 -104 0
5 8 134 0
-5 -8 -134 0
6 8 164 0
-6 -8 -164 0
7 8 194 0
-7 -8 -194 0
1 9 15 0
-1 -9 -15 0
2 9 45 0
-2 -9 -45 0
3 9 75 0
-3 -9 -75 0
4 9 105 0
-4 -9 -105 0
5 9 135 0
-5 -9 -135 0
6 9 165 0
-6 -9 -165 0
7 9 195 0
-7 -9 -195 0
1 10 16 0
-1 -10 -16 0
2 10 46 0
-2 -10 -46 0
3 10 76 0
-3 -10 -76 0
4 10 106 0
-4 -10 -106 0
5 10 136 0
-5 -10 -136 0
6 10 166 0
-6 -10 -166 0
7 10 196 0
-7 -10 -196 0
1 11 17 0
-1 -11 -17 0
2 11 47 0
-2 -11 -47 0
3 11 77 0
-3 -11 -77 0
4 11 107 0
-4 -11 -107 0
5 11 137 0
-5 -11 -137 0
6 11 167 0
-6 -11 -167 0
7 11 197 0
-7 -11 -197 0
1 12 18 0
-1 -12 -18 0
2 12 48 0
-2 -12 -48 0
3 12 78 0
-3 -12 -78 0
4 12 108 0
-4 -12 -108 0
5 12 138 0
-5 -12 -138 0
6 12 168 0
-6 -12 -168 0
7 12 198 0
-7 -12 -198 0
1 13 19 0
-1 -13 -19 0
2 13 49 0
-2 -13 -49 0
3 13 79 0
-3 -13 -79 0
4 13 109 0
-4 -13 -109 0
5 13 139 0
-5 -13 -139 0
6 13 169 0
-6 -13 -169 0
7 13 199 0
-7 -13 -199 0
1 14 20 0
-1 -14 -20 0
2 14 50 0
-2 -14 -50 0
3 14 80 0
-3 -14 -80 0
4 14 110 0
-4 -14 -110 0
5 14 140 0
-5 -14 -140 0
6 14 170 0
-6 -14 -170 0
7 14 200 0
-7 -14 -200 0
1 15 21 0
-1 -15 -21 0
2 15 51 0
-2 -15 -51 0
3 15 81 0
-3 -15 -81 0
4 15 111 0
-4 -15 -111 0
5 15 141 0
-5 -15 -141 0
6 15 171 0
-6 -15 -171 0
7 15 201 0
-7 -15 -201 0
1 16 22 0
-1 -16 -22 0
2 16 52 0
-2 -16 -52 0
3 16 82 0
-3 -16 -82 0
4 16 112 0
-4 -16 -112 0
5 16 142 0
-5 -16 -142 0
6 16 172 0
-6 -16 -172 0
7 16 202 0
-7 -16 -202 0
1 17 23 0
-1 -17 -23 0
2 17 53 0
-2 -17 -53 0
3 17 83 0
-3 -17 -83 0
4 17 113 0
-4 -17 -113 0
5 17 143 0
-5 -17 -143 0
6 17 173 0
-6 -17 -173 0
7 17 203 0
-7 -17 -203 0
1 18 24 0
-1 -18 -24 0
2 18 54 0
-2 -18 -54 0
3 18 84 0
-3 -18 -84 0
4 18 114 0
-4 -18 -114 0
5 18 144 0
-5 -18 -144 0
6 18 174 0
-6 -18 -174 0
7 18 204 0
-7 -18 -204 0
1 19 25 0
-1 -19 -25 0
2 19 55 0
-2 -19 -55 0
3 19 85 0
-3 -19 -85 0
4 19 115 0
-4 -19 -115 0
5 19 145 0
-5 -19 -145 0
6 19 175 0
-6 -19 -175 0
7 19 205 0
-7 -19 -205 0
1 20 26 0
-1 -20 -26 0
2 20 56 0
-2 -20 -56 0
3 20 86 0
-3 -20 -86 0
4 20 116 0
-4 -20 -116 0
5 20 146 0
-5 -20 -146 0
6 20 176 0
-6 -20 -176 0
7 20 206 0
-7 -20 -206 0
1 21 27 0
-1 -21 -27 0
2 21 57 0
-2 -21 -57 0
3 21 87 0
-3 -21 -87 0
4 21 117 0
-4 -21 -117 0
5 21 147 0
-5 -21 -147 0
6 21 177 0
-6 -21 -177 0
7 21 207 0
-7 -21 -207 0
1 22 28 0
-1 -22 -28 0
2 22 58 0
-2 -22 -58 0
3 22 88 0
-3 -22 -88 0
4 22 118 0
-4 -22 -118 0
5 22 148 0
-5 -22 -148 0
6 22 178 0
-6 -22 -178 0
7 22 208 0
-7 -22 -208 0
1 23 29 0
-1 -23 -29 0
2 23 59 0
-2 -23 -59 0
3 23 89 0
-3 -23 -89 0
4 23 119 0
-4 -23 -119 0
5 23 149 0
-5 -23 -149 0
6 23 179 0
-6 -23 -179 0
7 23 209 0
-7 -23 -209 0
1 24 30 0
-1 -24 -30 0
2 24 60 0
-2 -24 -60 0
3 24 90 0
-3 -24 -90 0
4 24 120 0
-4 -24 -120 0
5 24 150 0
-5 -24 -150 0
6 24 180 0
-6 -24 -180 0
7 24 210 0
-7 -24 -210 0
1 25 31 0
-1 -25 -31 0
2 25 61 0
-2 -25 -61 0
3 25 91 0
-3 -25 -91 0
4 25 121 0
-4 -25 -121 0
5 25 151 0
-5 -25 -151 0
6 25 181 0
-6 -25 -181 0
7 25 211 0
-7 -25 -211 0
1 26 32 0
-1 -26 -32 0
2 26 62 0
-2 -26 -62 0
3 26 92 0
-3 -26 -92 0
4 26 122 0
-4 -26 -122 0
5 26 152 0
-5 -26 -152 0
6 26 182 0
-6 -26 -182 0
7 26 212 0
-7 -26 -212 0
1 27 33 0
-1 -27 -33 0
2 27 63 0
-2 -27 -63 0
3 27 93 0
-3 -27 -93 0
4 27 123 0
-4 -27 -123 0
5 27 153 0
-5 -27 -153 0
6 27 183 0
-6 -27 -183 0
7 27 213 0
-7 -27 -213 0
1 28 34 0
-1 -28 -34 0
2 28 64 0
-2 -28 -64 0
3 28 94 0
-3 -28 -94 0
4 28 124 0
-4 -28 -124 0
5 28 154 0
-5 -28 -154 0
6 28 184 0
-6 -28 -184 0
7 28 214 0
-7 -28 -214 0
1 29 35 0
-1 -29 -35 0
2 29 65 0
-2 -29 -65 0
3 29 95 0
-3 -29 -95 0
4 29 125 0
-4 -29 -125 0
5 29 155 0
-5 -29 -155 0
6 29 185 0
-6 -29 -185 0
7 29 215 0
-7 -29 -215 0
1 30 36 0
-1 -30 -36 0
2 30 66 0
-2 -30 -66 0
3 30 96 0
-3 -30 -96 0
4 30 126 0
-4 -30 -126 0
5 30 156 0
-5 -30 -156 0
6 30 186 0
-6 -30 -186 0
7 30 216 0
-7 -30 -216 0
1 31 37 0
-1 -31 -37 0
2 31 67 0
-2 -31 -67 0
3 31 97 0
-3 -31 -97 0
4 31 127 0
-4 -31 -127 0
5 31 157 0
-5 -31 -157 0
6 31 187 0
-6 -31 -187 0
7 31 217 0
-7 -31 -217 0
1 32 38 0
-1 -32 -38 0
2 32 68 0
-2 -32 -68 0
3 32 98 0
-3 -32 -98 0
4 32 128 0
-4 -32 -128 0
5 32 158 0
-5 -32 -158 0
6 32 188 0
-6 -32 -188 0
7 32 218 0
-7 -32 -218 0
1 33 39 0
-1 -33 -39 0
2 33 69 0
-2 -33 -69 0
3 33 99 0
-3 -33 -99 0
4 33 129 0
-4 -33 -129 0
5 33 159 0
-5 -33 -159 0
6 33 189 0
-6 -33 -189 0
7 33 219 0
-7 -33 -219 0
1 34 40 0
-1 -34 -40 0
2 34 70 0
-2 -34 -70 0
3 34 100 0
-3 -34 -100 0
4 34 130 0
-4 -34 -130 0
5 34 160 0
-5 -34 -160 0
6 34 190 0
-6 -34 -190 0
7 34 220 0
-7 -34 -220 0
1 35 41 0
-1 -35 -41 0
2 35 71 0
-2 -35 -71 0
3 35 101 0
-3 -35 -101 0
4 35 131 0
-4 -35 -131 0
5 35 161 0
-5 -35 -161 0
6 35 191 0
-6 -35 -191 0
7 35 221 0
-7 -35 -221 0
1 36 42 0
-1 -36 -42 0
2 36 72 0
-2 -36 -72 0
3 36 102 0
-3 -36 -102 0
4 36 132 0
-4 -36 -132 0
5 36 162 0
-5 -36 -162 0
6 36 192 0
-6 -36 -192 0
7 36 222 0
-7 -36 -222 0
1 37 43 0
-1 -37 -43 0
2 37 73 0
-2 -37 -73 0
3 37 103 0
-3 -37 -103 0
4 37 133 0
-4 -37 -133 0
5 37 163 0
-5 -37 -163 0
6 37 193 0
-6 -37 -193 0
7 37 223 0
-7 -37 -223 0
1 38 44 0
-1 -38 -44 0
2 38 74 0
-2 -38 -74 0
3 38 104 0
-3 -38 -104 0
4 38 134 0
-4 -38 -134 0
5 38 164 0
-5 -38 -164 0
6 38 194 0
-6 -38 -194 0
1 39 45 0
-1 -39 -45 0
2 39 75 0
-2 -39 -75 0
3 39 105 0
-3 -39 -105 0
4 39 135 0
-4 -39 -135 0
5 39 165 0
-5 -39 -165 0
6 39 195 0
-6 -39 -195 0
1 40 46 0
-1 -40 -46 0
2 40 76 0
-2 -40 -76 0
3 40 106 0
-3 -40 -106 0
4 40 136 0
-4 -40 -136 0
5 40 166 0
-5 -40 -166 0
6 40 196 0
-6 -40 -196 0
1 41 47 0
-1 -41 -47 0
2 41 77 0
-2 -41 -77 0
3 41 107 0
-3 -41 -107 0
4 41 137 0
-4 -41 -137 0
5 41 167 0
-5 -41 -167 0
6 41 197 0
-6 -41 -197 0
1 42 48 0
-1 -42 -48 0
2 42 78 0
-2 -42 -78 0
3 42 108 0
-3 -42 -108 0
4 42 138 0
-4 -42 -138 0
5 42 168 0
-5 -42 -168 0
6 42 198 0
-6 -42 -198 0
1 43 49 0
-1 -43 -49 0
2 43 79 0
-2 -43 -79 0
3 43 109 0
-3 -43 -109 0
4 43 139 0
-4 -43 -139 0
5 43 169 0
-5 -43 -169 0
6 43 199 0
-6 -43 -199 0
1 44 50 0
-1 -44 -50 0
2 44 80 0
-2 -44 -80 0
3 44 110 0
-3 -44 -110 0
4 44 140 0
-4 -44 -140 0
5 44 170 0
-5 -44 -170 0
6 44 200 0
-6 -44 -200 0
1 45 51 0
-1 -45 -51 0
2 45 81 0
-2 -45 -81 0
3 45 111 0
-3 -45 -111 0
4 45 141 0
-4 -45 -141 0
5 45 171 0
-5 -45 -171 0
6 45 201 0
-6 -45 -201 0
1 46 52 0
-1 -46 -52 0
2 46 82 0
-2 -46 -82 0
3 46 112 0
-3 -46 -112 0
4 46 142 0
-4 -46 -142 0
5 46 172 0
-5 -46 -172 0
6 46 202 0
-6 -46 -202 0
1 47 53 0
-1 -47 -53 0
2 47 83 0
-2 -47 -83 0
3 47 113 0
-3 -47 -113 0
4 47 143 0
-4 -47 -143 0
5 47 173 0
-5 -47 -173 0
6 47 203 0
-6 -47 -203 0
1 48 54 0
-1 -48 -54 0
2 48 84 0
-2 -48 -84 0
3 48 114 0
-3 -48 -114 0
4 48 144 0
-4 -48 -144 0
5 48 174 0
-5 -48 -174 0
6 48 204 0
-6 -48 -204 0
1 49 55 0
-1 -49 -55 0
2 49 85 0
-2 -49 -85 0
3 49 115 0
-3 -49 -115 0
4 49 145 0
-4 -49 -145 0
5 49 175 0
-5 -49 -175 0
6 49 205 0
-6 -49 -205 0
1 50 56 0
-1 -50 -56 0
2 50 86 0
-2 -50 -86 0
3 50 116 0
-3 -50 -116 0
4 50 146 0
-4 -50 -146 0
5 50 176 0
-5 -50 -176 0
6 50 206 0
-6 -50 -206 0
1 51 57 0
-1 -51 -57 0
2 51 87 0
-2 -51 -87 0
3 51 117 0
-3 -51 -117 0
4 51 147 0
-4 -51 -147 0
5 51 177 0
-5 -51 -177 0
6 51 207 0
-6 -51 -207 0
1 52 58 0
-1 -52 -58 0
2 52 88 0
-2 -52 -88 0
3 52 118 0
-3 -52 -118 0
4 52 148 0
-4 -52 -148 0
5 52 178 0
-5 -52 -178 0
6 52 208 0
-6 -52 -208 0
1 53 59 0
-1 -53 -59 0
2 53 89 0
-2 -53 -89 0
3 53 119 0
-3 -53 -119 0
4 53 149 0
-4 -53 -149 0
5 53 179 0
-5 -53 -179 0
6 53 209 0
-6 -53 -209 0
1 54 60 0
-1 -54 -60 0
2 54 90 0
-2 -54 -90 0
3 54 120 0
-3 -54 -120 0
4 54 150 0
-4 -54 -150 0
5 54 180 0
-5 -54 -180 0
6 54 210 0
-6 -54 -210 0
1 55 61 0
-1 -55 -61 0
2 55 91 0
-2 -55 -91 0
3 55 121 0
-3 -55 -121 0
4 55 151 0
-4 -55 -151 0
5 55 181 0
-5 -55 -181 0
6 55 211 0
-6 -55 -211 0
1 56 62 0
-1 -56 -62 0
2 56 92 0
-2 -56 -92 0
3 56 122 0
-3 -56 -122 0
4 56 152 0
-4 -56 -152 0
5 56 182 0
-5 -56 -182 0
6 56 212 0
-6 -56 -212 0
1 57 63 0
-1 -57 -63 0
2 57 93 0
-2 -57 -93 0
3 57 123 0
-3 -57 -123 0
4 57 153 0
-4 -57 -153 0
5 57 183 0
-5 -57 -183 0
6 57 213 0
-6 -57 -213 0
1 58 64 0
-1 -58 -64 0
2 58 94 0
-2 -58 -94 0
3 58 124 0
-3 -58 -124 0
4 58 154 0
-4 -58 -154 0
5 58 184 0
-5 -58 -184 0
6 58 214 0
-6 -58 -214 0
1 59 65 0
-1 -59 -65 0
2 59 95 0
-2 -59 -95 0
3 59 125 0
-3 -59 -125 0
4 59 155 0
-4 -59 -155 0
5 59 185 0
-5 -59 -185 0
6 59 215 0
-6 -59 -215 0
1 60 66 0
-1 -60 -66 0
2 60 96 0
-2 -60 -96 0
3 60 126 0
-3 -60 -126 0
4 60 156 0
-4 -60 -156 0
5 60 186 0
-5 -60 -186 0
6 60 216 0
-6 -60 -216 0
1 61 67 0
-1 -61 -67 0
2 61 97 0
-2 -61 -97 0
3 61 127 0
-3 -61 -127 0
4 61 157 0
-4 -61 -157 0
5 61 187 0
-5 -61 -187 0
6 61 217 0
-6 -61 -217 0
1 62 68 0
-1 -62 -68 0
2 62 98 0
-2 -62 -98 0
3 62 128 0
-3 -62 -128 0
4 62 158 0
-4 -62 -158 0
5 62 188 0
-5 -62 -188 0
6 62 218 0
-6 -62 -218 0
1 63 69 0
-1 -63 -69 0
2 63 99 0
-2 -63 -99 0
3 63 129 0
-3 -63 -129 0
4 63 159 0
-4 -63 -159 0
5 63 189 0
-5 -63 -189 0
6 63 219 0
-6 -63 -219 0
1 64 70 0
-1 -64 -70 0
2 64 100 0
-2 -64 -100 0
3 64 130 0
-3 -64 -130 0
4 64 160 0
-4 -64 -160 0
5 64 190 0
-5 -64 -190 0
6 64 220 0
-6 -64 -220 0
1 65 71 0
-1 -65 -71 0
2 65 101 0
-2 -65 -101 0
3 65 131 0
-3 -65 -131 0
4 65 161 0
-4 -65 -161 0
5 65 191 0
-5 -65 -191 0
6 65 221 0
-6 -65 -221 0
1 66 72 0
-1 -66 -72 0
2 66 102 0
-2 -66 -102 0
3 66 132 0
-3 -66 -132 0
4 66 162 0
-4 -66 -162 0
5 66 192 0
-5 -66 -192 0
6 66 222 0
-6 -66 -222 0
1 67 73 0
-1 -67 -73 0
2 67 103 0
-2 -67 -103 0
3 67 133 0
-3 -67 -133 0
4 67 163 0
-4 -67 -163 0
5 67 193 0
-5 -67 -193 0
6 67 223 0
-6 -67 -223 0
1 68 74 0
-1 -68 -74 0
2 68 104 0
-2 -68 -104 0
3 68 134 0
-3 -68 -134 0
4 68 164 0
-4 -68 -164 0
5 68 194 0
-5 -68 -194 0
1 69 75 0
-1 -69 -75 0
2 69 105 0
-2 -69 -105 0
3 69 135 0
-3 -69 -135 0
4 69 165 0
-4 -69 -165 0
5 69 195 0
-5 -69 -195 0
1 70 76 0
-1 -70 -76 0
2 70 106 0
-2 -70 -106 0
3 70 136 0
-3 -70 -136 0
4 70 166 0
-4 -70 -166 0
5 70 196 0
-5 -70 -196 0
1 71 77 0
-1 -71 -77 0
2 71 107 0
-2 -71 -107 0
3 71 137 0
-3 -71 -137 0
4 71 167 0
-4 -71 -167 0
5 71 197 0
-5 -71 -197 0
1 72 78 0
-1 -72 -78 0
2 72 108 0
-2 -72 -108 0
3 72 138 0
-3 -72 -138 0
4 72 168 0
-4 -72 -168 0
5 72 198 0
-5 -72 -198 0
1 73 79 0
-1 -73 -79 0
2 73 109 0
-2 -73 -109 0
3 73 139 0
-3 -73 -139 0
4 73 169 0
-4 -73 -169 0
5 73 199 0
-5 -73 -199 0
1 74 80 0
-1 -74 -80 0
2 74 110 0
-2 -74 -110 0
3 74 140 0
-3 -74 -140 0
4 74 170 0
-4 -74 -170 0
5 74 200 0
-5 -74 -200 0
1 75 81 0
-1 -75 -81 0
2 75 111 0
-2 -75 -111 0
3 75 141 0
-3 -75 -141 0
4 75 171 0
-4 -75 -171 0
5 75 201 0
-5 -75 -201 0
1 76 82 0
-1 -76 -82 0
2 76 112 0
-2 -76 -112 0
3 76 142 0
-3 -76 -142 0
4 76 172 0
-4 -76 -172 0
5 76 202 0
-5 -76 -202 0
1 77 83 0
-1 -77 -83 0
2 77 113 0
-2 -77 -113 0
3 77 143 0
-3 -77 -143 0
4 77 173 0
-4 -77 -173 0
5 77 203 0
-5 -77 -203 0
1 78 84 0
-1 -78 -84 0
2 78 114 0
-2 -78 -114 0
3 78 144 0
-3 -78 -144 0
4 78 174 0
-4 -78 -174 0
5 78 204 0
-5 -78 -204 0
1 79 85 0
-1 -79 -85 0
2 79 115 0
-2 -79 -115 0
3 79 145 0
-3 -79 -145 0
4 79 175 0
-4 -79 -175 0
5 79 205 0
-5 -79 -205 0
1 80 86 0
-1 -80 -86 0
2 80 116 0
-2 -80 -116 0
3 80 146 0
-3 -80 -146 0
4 80 176 0
-4 -80 -176 0
5 80 206 0
-5 -80 -206 0
1 81 87 0
-1 -81 -87 0
2 81 117 0
-2 -81 -117 0
3 81 147 0
-3 -81 -147 0
4 81 177 0
-4 -81 -177 0
5 81 207 0
-5 -81 -207 0
1 82 88 0
-1 -82 -88 0
2 82 118 0
-2 -82 -118 0
3 82 148 0
-3 -82 -148 0
4 82 178 0
-4 -82 -178 0
5 82 208 0
-5 -82 -208 0
1 83 89 0
-1 -83 -89 0
2 83 119 0
-2 -83 -119 0
3 83 149 0
-3 -83 -149 0
4 83 179 0
-4 -83 -179 0
5 83 209 0
-5 -83 -209 0
1 84 90 0
-1 -84 -90 0
2 84 120 0
-2 -84 -120 0
3 84 150 0
-3 -84 -150 0
4 84 180 0
-4 -84 -180 0
5 84 210 0
-5 -84 -210 0
1 85 91 0
-1 -85 -91 0
2 85 121 0
-2 -85 -121 0
3 85 151 0
-3 -85 -151 0
4 85 181 0
-4 -85 -181 0
5 85 211 0
-5 -85 -211 0
1 86 92 0
-1 -86 -92 0
2 86 122 0
-2 -86 -122 0
3 86 152 0
-3 -86 -152 0
4 86 182 0
-4 -86 -182 0
5 86 212 0
-5 -86 -212 0
1 87 93 0
-1 -87 -93 0
2 87 123 0
-2 -87 -123 0
3 87 153 0
-3 -87 -153 0
4 87 183 0
-4 -87 -183 0
5 87 213 0
-5 -87 -213 0
1 88 94 0
-1 -88 -94 0
2 88 124 0
-2 -88 -124 0
3 88 154 0
-3 -88 -154 0
4 88 184 0
-4 -88 -184 0
5 88 214 0
-5 -88 -214 0
1 89 95 0
-1 -89 -95 0
2 89 125 0
-2 -89 -125 0
3 89 155 0
-3 -89 -155 0
4 89 185 0
-4 -89 -185 0
5 89 215 0
-5 -89 -215 0
1 90 96 0
-1 -90 -96 0
2 90 126 0
-2 -90 -126 0
3 90 156 0
-3 -90 -156 0
4 90 186 0
-4 -90 -186 0
5 90 216 0
-5 -90 -216 0
1 91 97 0
-1 -91 -97 0
2 91 127 0
-2 -91 -127 0
3 91 157 0
-3 -91 -157 0
4 91 187 0
-4 -91 -187 0
5 91 217 0
-5 -91 -217 0
1 92 98 0
-1 -92 -98 0
2 92 128 0
-2 -92 -128 0
3 92 158 0
-3 -92 -158 0
4 92 188 0
-4 -92 -188 0
5 92 218 0
-5 -92 -218 0
1 93 99 0
-1 -93 -99 0
2 93 129 0
-2 -93 -129 0
3 93 159 0
-3 -93 -159 0
4 93 189 0
-4 -93 -189 0
5 93 219 0
-5 -93 -219 0
1 94 100 0
-1 -94 -100 0
2 94 130 0
-2 -94 -130 0
3 94 160 0
-3 -94 -160 0
4 94 190 0
-4 -94 -190 0
5 94 220 0
-5 -94 -220 0
1 95 101 0
-1 -95 -101 0
2 95 131 0
-2 -95 -131 0
3 95 161 0
-3 -95 -161 0
4 95 191 0
-4 -95 -191 0
5 95 221 0
-5 -95 -221 0
1 96 102 0
-1 -96 -102 0
2 96 132 0
-2 -96 -132 0
3 96 162 0
-3 -96 -162 0
4 96 192 0
-4 -96 -192 0
5 96 222 0
-5 -96 -222 0
1 97 103 0
-1 -97 -103 0
2 97 133 0
-2 -97 -133 0
3 97 163 0
-3 -97 -163 0
4 97 193 0
-4 -97 -193 0
5 97 223 0
-5 -97 -223 0
1 98 104 0
-1 -98 -104 0
2 98 134 0
-2 -98 -134 0
3 98 164 0
-3 -98 -164 0
4 98 194 0
-4 -98 -194 0
1 99 105 0
-1 -99 -105 0
2 99 135 0
-2 -99 -135 0
3 99 165 0
-3 -99 -165 0
4 99 195 0
-4 -99 -195 0
1 100 106 0
-1 -100 -106 0
2 100 136 0
-2 -100 -136 0
3 100 166 0
-3 -100 -166 0
4 100 196 0
-4 -100 -196 0
1 101 107 0
-1 -101 -107 0
2 101 137 0
-2 -101 -137 0
3 101 167 0
-3 -101 -167 0
4 101 197 0
-4 -101 -197 0
1 102 108 0
-1 -102 -108 0
2 102 138 0
-2 -102 -138 0
3 102 168 0
-3 -102 -168 0
4 102 198 0
-4 -102 -198 0
1 103 109 0
-1 -103 -109 0
2 103 139 0
-2 -103 -139 0
3 103 169 0
-3 -103 -169 0
4 103 199 0
-4 -103 -199 0
1 104 110 0
-1 -104 -110 0
2 104 140 0
-2 -104 -140 0
3 104 170 0
-3 -104 -170 0
4 104 200 0
-4 -104 -200 0
1 105 111 0
-1 -105 -111 0
2 105 141 0
-2 -105 -141 0
3 105 171 0
-3 -105 -171 0
4 105 201 0
-4 -105 -201 0
1 106 112 0
-1 -106 -112 0
2 106 142 0
-2 -106 -142 0
3 106 172 0
-3 -106 -172 0
4 106 202 0
-4 -106 -202 0
1 107 113 0
-1 -107 -113 0
2 107 143 0
-2 -107 -143 0
3 107 173 0
-3 -107 -173 0
4 107 203 0
-4 -107 -203 0
1 108 114 0
-1 -108 -114 0
2 108 144 0
-2 -108 -144 0
3 108 174 0
-3 -108 -174 0
4 108 204 0
-4 -108 -204 0
1 109 115 0
-1 -109 -115 0
2 109 145 0
-2 -109 -145 0
3 109 175 0
-3 -109 -175 0
4 109 205 0
-4 -109 -205 0
1 110 116 0
-1 -110 -116 0
2 110 146 0
-2 -110 -146 0
3 110 176 0
-3 -110 -176 0
4 110 206 0
-4 -110 -206 0
1 111 117 0
-1 -111 -117 0
2 111 147 0
-2 -111 -147 0
3 111 177 0
-3 -111 -177 0
4 111 207 0
-4 -111 -207 0
1 112 118 0
-1 -112 -118 0
2 112 148 0
-2 -112 -148 0
3 112 178 0
-3 -112 -178 0
4 112 208 0
-4 -112 -208 0
1 113 119 0
-1 -113 -119 0
2 113 149 0
-2 -113 -149 0
3 113 179 0
-3 -113 -179 0
4 113 209 0
-4 -113 -209 0
1 114 120 0
-1 -114 -120 0
2 114 150 0
-2 -114 -150 0
3 114 180 0
-3 -114 -180 0
4 114 210 0
-4 -114 -210 0
1 115 121 0
-1 -115 -121 0
2 115 151 0
-2 -115 -151 0
3 115 181 0
-3 -115 -181 0
4 115 211 0
-4 -115 -211 0
1 116 122 0
-1 -116 -122 0
2 116 152 0
-2 -116 -152 0
3 116 182 0
-3 -116 -182 0
4 116 212 0
-4 -116 -212 0
1 117 123 0
-1 -117 -123 0
2 117 153 0
-2 -117 -153 0
3 117 183 0
-3 -117 -183 0
4 117 213 0
-4 -117 -213 0
1 118 124 0
-1 -118 -124 0
2 118 154 0
-2 -118 -154 0
3 118 184 0
-3 -118 -184 0
4 118 214 0
-4 -118 -214 0
1 119 125 0
-1 -119 -125 0
2 119 155 0
-2 -119 -155 0
3 119 185 0
-3 -119 -185 0
4 119 215 0
-4 -119 -215 0
1 120 126 0
-1 -120 -126 0
2 120 156 0
-2 -120 -156 0
3 120 186 0
-3 -120 -186 0
4 120 216 0
-4 -120 -216 0
1 121 127 0
-1 -121 -127 0
2 121 157 0
-2 -121 -157 0
3 121 187 0
-3 -121 -187 0
4 121 217 0
-4 -121 -217 0
1 122 128 0
-1 -122 -128 0
2 122 158 0
-2 -122 -158 0
3 122 188 0
-3 -122 -188 0
4 122 218 0
-4 -122 -218 0
1 123 129 0
-1 -123 -129 0
2 123 159 0
-2 -123 -159 0
3 123 189 0
-3 -123 -189 0
4 123 219 0
-4 -123 -219 0
1 124 130 0
-1 -124 -130 0
2 124 160 0
-2 -124 -160 0
3 124 190 0
-3 -124 -190 0
4 124 220 0
-4 -124 -220 0
1 125 131 0
-1 -125 -131 0
2 125 161 0
-2 -125 -161 0
3 125 191 0
-3 -125 -191 0
4 125 221 0
-4 -125 -221 0
1 126 132 0
-1 -126 -132 0
2 126 162 0
-2 -126 -162 0
3 126 192 0
-3 -126 -192 0
4 126 222 0
-4 -126 -222 0
1 127 133 0
-1 -127 -133 0
2 127 163 0
-2 -127 -163 0
3 127 193 0
-3 -127 -193 0
4 127 223 0
-4 -127 -223 0
1 128 134 0
-1 -128 -134 0
2 128 164 0
-2 -128 -164 0
3 128 194 0
-3 -128 -194 0
1 129 135 0
-1 -129 -135 0
2 129 165 0
-2 -129 -165 0
3 129 195 0
-3 -129 -195 0
1 130 136 0
-1 -130 -136 0
2 130 166 0
-2 -130 -166 0
3 130 196 0
-3 -130 -196 0
1 131 137 0
-1 -131 -137 0
2 131 167 0
-2 -131 -167 0
3 131 197 0
-3 -131 -197 0
1 132 138 0
-1 -132 -138 0
2 132 168 0
-2 -132 -168 0
3 132 198 0
-3 -132 -198 0
1 133 139 0
-1 -133 -139 0
2 133 169 0
-2 -133 -169 0
3 133 199 0
-3 -133 -199 0
1 134 140 0
-1 -134 -140 0
2 134 170 0
-2 -134 -170 0
3 134 200 0
-3 -134 -200 0
1 135 141 0
-1 -135 -141 0
2 135 171 0
-2 -135 -171 0
3 135 201 0
-3 -135 -201 0
1 136 142 0
-1 -136 -142 0
2 136 172 0
-2 -136 -172 0
3 136 202 0
-3 -136 -202 0
1 137 143 0
-1 -137 -143 0
2 137 173 0
-2 -137 -173 0
3 137 203 0
-3 -137 -203 0
1 138 144 0
-1 -138 -144 0
2 138 174 0
-2 -138 -174 0
3 138 204 0
-3 -138 -204 0
1 139 145 0
-1 -139 -145 0
2 139 175 0
-2 -139 -175 0
3 139 205 0
-3 -139 -205 0
1 140 146 0
-1 -140 -146 0
2 140 176 0
-2 -140 -176 0
3 140 206 0
-3 -140 -206 0
1 141 147 0
-1 -141 -147 0
2 141 177 0
-2 -141 -177 0
3 141 207 0
-3 -141 -207 0
1 142 148 0
-1 -142 -148 0
2 142 178 0
-2 -142 -178 0
3 142 208 0
-3 -142 -208 0
1 143 149 0
-1 -143 -149 0
2 143 179 0
-2 -143 -179 0
3 143 209 0
-3 -143 -209 0
1 144 150 0
-1 -144 -150 0
2 144 180 0
-2 -144 -180 0
3 144 210 0
-3 -144 -210 0
1 145 151 0
-1 -145 -151 0
2 145 181 0
-2 -145 -181 0
3 145 211 0
-3 -145 -211 0
1 146 152 0
-1 -146 -152 0
2 146 182 0
-2 -146 -182 0
3 146 212 0
-3 -146 -212 0
1 147 153 0
-1 -147 -153 0
2 147 183 0
-2 -147 -183 0
3 147 213 0
-3 -147 -213 0
1 148 154 0
-1 -148 -154 0
2 148 184 0
-2 -148 -184 0
3 148 214 0
-3 -148 -214 0
1 149 155 0
-1 -149 -155 0
2 149 185 0
-2 -149 -185 0
3 149 215 0
-3 -149 -215 0
1 150 156 0
-1 -150 -156 0
2 150 186 0
-2 -150 -186 0
3 150 216 0
-3 -150 -216 0
1 151 157 0
-1 -151 -157 0
2 151 187 0
-2 -151 -187 0
3 151 217 0
-3 -151 -217 0
1 152 158 0
-1 -152 -158 0
2 152 188 0
-2 -152 -188 0
3 152 218 0
-3 -152 -218 0
1 153 159 0
-1 -153 -159 0
2 153 189 0
-2 -153 -189 0
3 153 219 0
-3 -153 -219 0
1 154 160 0
-1 -154 -160 0
2 154 190 0
-2 -154 -190 0
3 154 220 0
-3 -154 -220 0
1 155 161 0
-1 -155 -161 0
2 155 191 0
-2 -155 -191 0
3 155 221 0
-3 -155 -221 0
1 156 162 0
-1 -156 -162 0
2 156 192 0
-2 -156 -192 0
3 156 222 0
-3 -156 -222 0
1 157 163 0
-1 -157 -163 0
2 157 193 0
-2 -157 -193 0
3 157 223 0
-3 -157 -223 0
1 158 164 0
-1 -158 -164 0
2 158 194 0
-2 -158 -194 0
1 159 165 0
-1 -159 -165 0
2 159 195 0
-2 -159 -195 0
1 160 166 0
-1 -160 -166 0
2 160 196 0
-2 -160 -196 0
1 161 167 0
-1 -161 -167 0
2 161 197 0
-2 -161 -197 0
1 162 168 0
-1 -162 -168 0
2 162 198 0
-2 -162 -198 0
1 163 169 0
-1 -163 -169 0
2 163 199 0
-2 -163 -199 0
1 164 170 0
-1 -164 -170 0
2 164 200 0
-2 -164 -200 0
1 165 171 0
-1 -165 -171 0
2 165 201 0
-2 -165 -201 0
1 166 172 0
-1 -166 -172 0
2 166 202 0
-2 -166 -202 0
1 167 173 0
-1 -167 -173 0
2 167 203 0
-2 -167 -203 0
1 168 174 0
-1 -168 -174 0
2 168 204 0
-2 -168 -204 0
1 169 175 0
-1 -169 -175 0
2 169 205 0
-2 -169 -205 0
1 170 176 0
-1 -170 -176 0
2 170 206 0
-2 -170 -206 0
1 171 177 0
-1 -171 -177 0
2 171 207 0
-2 -171 -207 0
1 172 178 0
-1 -172 -178 0
2 172 208 0
-2 -172 -208 0
1 173 179 0
-1 -173 -179 0
2 173 209 0
-2 -173 -209 0
1 174 180 0
-1 -174 -180 0
2 174 210 0
-2 -174 -210 0
1 175 181 0
-1 -175 -181 0
2 175 211 0
-2 -175 -211 0
1 176 182 0
-1 -176 -182 0
2 176 212 0
-2 -176 -212 0
1 177 183 0
-1 -177 -183 0
2 177 213 0
-2 -177 -213 0
1 178 184 0
-1 -178 -184 0
2 178 214 0
-2 -178 -214 0
1 179 185 0
-1 -179 -185 0
2 179 215 0
-2 -179 -215 0
1 180 186 0
-1 -180 -186 0
2 180 216 0
-2 -180 -216 0
1 181 187 0
-1 -181 -187 0
2 181 217 0
-2 -181 -217 0
1 182 188 0
-1 -182 -188 0
2 182 218 0
-2 -182 -218 0
1 183 189 0
-1 -183 -189 0
2 183 219 0
-2 -183 -219 0
1 184 190 0
-1 -184 -190 0
2 184 220 0
-2 -184 -220 0
1 185 191 0
-1 -185 -191 0
2 185 221 0
-2 -185 -221 0
1 186 192 0
-1 -186 -192 0
2 186 222 0
-2 -186 -222 0
1 187 193 0
-1 -187 -193 0
2 187 223 0
-2 -187 -223 0
1 188 194 0
-1 -188 -194 0
1 189 195 0
-1 -189 -195 0
1 190 196 0
-1 -190 -196 0
1 191 197 0
-1 -191 -197 0
1 192 198 0
-1 -192 -198 0
1 193 199 0
-1 -193 -199 0
1 194 200 0
-1 -194 -200 0
1 195 201 0
-1 -195 -201 0
1 196 202 0
-1 -196 -202 0
1 197 203 0
-1 -197 -203 0
1 198 204 0
-1 -198 -204 0
1 199 205 0
-1 -199 -205 0
1 200 206 0
-1 -200 -206 0
1 201 207 0
-1 -201 -207 0
1 202 208 0
-1 -202 -208 0
1 203 209 0
-1 -203 -209 0
1 204 210 0
-1 -204 -210 0
1 205 211 0
-1 -205 -211 0
1 206 212 0
-1 -206 -212 0
1 207 213 0
-1 -207 -213 0
1 208 214 0
-1 -208 -214 0
1 209 215 0
-1 -209 -215 0
1 210 216 0
-1 -210 -216 0
1 211 217 0
-1 -211 -217 0
1 212 218 0
-1 -212 -218 0
1 213 219 0
-1 -213 -219 0
1 214 220 0
-1 -214 -220 0
1 215 221 0
-1 -215 -221 0
1 216 222 0
-1 -216 -222 0
1 217 223 0
-1 -217 -223 0
