certificates/rado_a30_c24_N223.drat
-217 -223 0
d -217 -1 -223 0
31 37 217 0
-7 -223 0
-223 0
217 0
7 0
-1 0
-193 0
-31 0
199 0
187 0
37 0
25 0
-13 0
-211 0
19 0
205 0
0
